networks/zoo_47_331/zoo_47_331-lower.txt
Number of groups: 24
Flow 11: {1 16 0} {16 10 1} {10 14 2} {14 38 3} 
Flow 23: {2 8 0} {8 7 1} {7 31 2} 
Flow 33: {3 16 0} {16 8 1} {8 32 2} 
Flow 36: {4 16 0} {16 3 1} {3 27 2} 
Flow 41: {6 8 0} {8 21 1} {21 45 2} 
Flow 50: {7 8 0} {8 11 1} {11 35 2} 
Flow 80: {21 22 0} {22 46 1} 
Flow 87: {9 10 0} {10 8 1} {8 6 2} {6 30 3} 
Flow 114: {10 16 0} {16 15 1} {15 39 2} 
Flow 124: {11 8 0} {8 2 1} {2 26 2} 
Flow 151: {12 21 0} {21 16 1} {16 13 2} {13 37 3} 
Flow 157: {8 19 0} {19 43 1} 
Flow 160: {13 16 0} {16 1 1} {1 25 2} 
Flow 180: {14 10 0} {10 21 1} 
Flow 193: {15 16 0} {16 40 1} 
Flow 216: {16 21 0} {21 20 1} {20 44 2} 
Flow 220: {17 10 0} {10 34 1} 
Flow 225: {18 8 2} {8 5 3} {5 29 4} 
Flow 231: {8 10 0} 
Flow 238: {19 8 1} {8 16 2} {16 4 3} {4 28 4} 
Flow 259: {20 21 0} {21 23 1} {23 47 2} 
Flow 292: {22 21 0} {21 10 1} {10 17 2} {17 41 3} 
Flow 309: {23 21 0} {21 8 1} {8 18 2} {18 42 3} 
Flow 322: {24 21 0} {21 12 1} {12 36 2} 
Time taken running everything: 0 seconds
