networks/zoo_47_331/zoo_47_331-lower.sol
<?xml version = "1.0" encoding="UTF-8" standalone="yes"?>
<CPLEXSolution version="1.2">
 <header
   problemName="networks/zoo_47_331/zoo_47_331-lower.lp"
   solutionName="incumbent"
   solutionIndex="-1"
   objectiveValue="22"
   solutionTypeValue="3"
   solutionTypeString="primal"
   solutionStatusValue="101"
   solutionStatusString="integer optimal solution"
   solutionMethodString="mip"
   primalFeasible="1"
   dualFeasible="1"
   MIPNodes="0"
   MIPIterations="0"
   writeLevel="3"/>
 <quality
   epInt="1.0000000000000001e-05"
   epRHS="9.9999999999999995e-07"
   maxIntInfeas="0"
   maxPrimalInfeas="0"
   maxX="1"
   maxSlack="1"/>
 <variables>
  <variable name="Y(1,2)" index="1" value="1"/>
  <variable name="Y(2,3)" index="48" value="1"/>
  <variable name="Y(3,4)" index="95" value="1"/>
  <variable name="Y(4,5)" index="142" value="1"/>
  <variable name="Y(5,6)" index="189" value="1"/>
  <variable name="Y(6,7)" index="236" value="1"/>
  <variable name="Y(7,8)" index="283" value="1"/>
  <variable name="Y(8,10)" index="331" value="1"/>
  <variable name="Y(9,12)" index="379" value="1"/>
  <variable name="Y(10,13)" index="426" value="1"/>
  <variable name="Y(11,14)" index="473" value="1"/>
  <variable name="Y(12,15)" index="520" value="1"/>
  <variable name="Y(13,16)" index="567" value="1"/>
  <variable name="Y(14,17)" index="614" value="1"/>
  <variable name="Y(15,18)" index="661" value="1"/>
  <variable name="Y(16,19)" index="708" value="1"/>
  <variable name="Y(17,21)" index="756" value="1"/>
  <variable name="Y(18,23)" index="804" value="1"/>
  <variable name="Y(19,1)" index="828" value="1"/>
  <variable name="Y(50,11)" index="2264" value="1"/>
  <variable name="Y(78,20)" index="3561" value="1"/>
  <variable name="Y(80,22)" index="3655" value="1"/>
  <variable name="X(1,16,1)" index="15226" value="1"/>
  <variable name="X(1,25,19)" index="15575" value="1"/>
  <variable name="X(2,8,19)" index="15906" value="1"/>
  <variable name="X(2,26,1)" index="16219" value="1"/>
  <variable name="X(3,16,33)" index="16582" value="1"/>
  <variable name="X(3,27,2)" index="16882" value="1"/>
  <variable name="X(4,16,36)" index="17247" value="1"/>
  <variable name="X(4,28,3)" index="17545" value="1"/>
  <variable name="X(5,29,4)" index="17877" value="1"/>
  <variable name="X(6,8,41)" index="18245" value="1"/>
  <variable name="X(6,30,5)" index="18540" value="1"/>
  <variable name="X(7,8,42)" index="18908" value="1"/>
  <variable name="X(7,31,6)" index="19203" value="1"/>
  <variable name="X(8,2,1)" index="19529" value="1"/>
  <variable name="X(8,5,4)" index="19863" value="1"/>
  <variable name="X(8,6,5)" index="20195" value="1"/>
  <variable name="X(8,7,6)" index="20527" value="1"/>
  <variable name="X(8,10,25)" index="20877" value="1"/>
  <variable name="X(8,11,50)" index="21233" value="1"/>
  <variable name="X(8,16,19)" index="21533" value="1"/>
  <variable name="X(8,18,15)" index="21860" value="1"/>
  <variable name="X(8,19,16)" index="22192" value="1"/>
  <variable name="X(8,21,31)" index="22538" value="1"/>
  <variable name="X(8,32,7)" index="22845" value="1"/>
  <variable name="X(9,10,82)" index="23251" value="1"/>
  <variable name="X(10,8,83)" index="23583" value="1"/>
  <variable name="X(10,14,11)" index="23842" value="1"/>
  <variable name="X(10,16,82)" index="24244" value="1"/>
  <variable name="X(10,17,14)" index="24507" value="1"/>
  <variable name="X(10,21,92)" index="24916" value="1"/>
  <variable name="X(10,34,8)" index="25163" value="1"/>
  <variable name="X(11,8,123)" index="25609" value="1"/>
  <variable name="X(11,35,50)" index="25867" value="1"/>
  <variable name="X(12,21,142)" index="26290" value="1"/>
  <variable name="X(12,36,9)" index="26488" value="1"/>
  <variable name="X(13,16,160)" index="26970" value="1"/>
  <variable name="X(13,37,10)" index="27151" value="1"/>
  <variable name="X(14,10,179)" index="27651" value="1"/>
  <variable name="X(14,38,11)" index="27814" value="1"/>
  <variable name="X(15,16,181)" index="28315" value="1"/>
  <variable name="X(15,39,12)" index="28477" value="1"/>
  <variable name="X(16,1,19)" index="28815" value="1"/>
  <variable name="X(16,3,2)" index="29129" value="1"/>
  <variable name="X(16,4,3)" index="29461" value="1"/>
  <variable name="X(16,8,1)" index="29790" value="1"/>
  <variable name="X(16,10,8)" index="30128" value="1"/>
  <variable name="X(16,13,10)" index="30461" value="1"/>
  <variable name="X(16,15,12)" index="30794" value="1"/>
  <variable name="X(16,21,9)" index="31122" value="1"/>
  <variable name="X(16,40,13)" index="31457" value="1"/>
  <variable name="X(17,10,220)" index="31995" value="1"/>
  <variable name="X(17,41,14)" index="32120" value="1"/>
  <variable name="X(18,8,222)" index="32659" value="1"/>
  <variable name="X(18,42,15)" index="32783" value="1"/>
  <variable name="X(19,8,237)" index="33336" value="1"/>
  <variable name="X(19,43,16)" index="33446" value="1"/>
  <variable name="X(20,21,242)" index="34003" value="1"/>
  <variable name="X(20,44,78)" index="34170" value="1"/>
  <variable name="X(21,8,143)" index="34566" value="1"/>
  <variable name="X(21,10,150)" index="34904" value="1"/>
  <variable name="X(21,12,9)" index="35094" value="1"/>
  <variable name="X(21,16,142)" index="35558" value="1"/>
  <variable name="X(21,20,78)" index="35825" value="1"/>
  <variable name="X(21,22,80)" index="36158" value="1"/>
  <variable name="X(21,23,18)" index="36427" value="1"/>
  <variable name="X(21,45,17)" index="36757" value="1"/>
  <variable name="X(22,21,281)" index="37352" value="1"/>
  <variable name="X(22,46,80)" index="37482" value="1"/>
  <variable name="X(23,21,297)" index="38030" value="1"/>
  <variable name="X(23,47,18)" index="38082" value="1"/>
  <variable name="X(24,21,312)" index="38707" value="1"/>
 </variables>
</CPLEXSolution>
